<number of tasks>
50

<cycle time>
1000

<order strength>
0.195


<task times>
1 115
2 33
3 181
4 137
5 94
6 84
7 157
8 227
9 165
10 158
11 71
12 104
13 78
14 154
15 63
16 80
17 35
18 83
19 70
20 222
21 79
22 117
23 154
24 82
25 115
26 71
27 103
28 160
29 65
30 57
31 78
32 166
33 74
34 62
35 280
36 134
37 108
38 160
39 20
40 148
41 167
42 231
43 132
44 192
45 279
46 39
47 22
48 77
49 108
50 36

<precedence relations>
1,10
2,10
3,10
4,10
5,10
6,11
7,12
8,13
8,14
8,16
8,17
8,38
9,15
9,16
10,18
10,19
10,20
10,21
11,23
12,24
13,25
14,22
15,43
17,26
18,32
20,33
21,29
21,31
22,27
23,28
24,29
25,30
26,34
27,35
32,36
35,37
36,38
36,39
36,40
36,41
36,42
36,43
37,44
38,46
39,46
41,45
41,47
41,50
43,48
44,49
46,48
46,50

<end>
